100 20 100
21 49 56 62 71 29 59 88 18 51 15 50 36 39 52 61 20 26 31 30 46 7 49 21 34 3 72 21 85 4 42 35 60 4 58 42 15 10 30 34 13 97 36 49 36 89 62 9 15 46 39 13 53 40 34 87 43 58 8 81 62 2 68 75 59 26 17 74 36 99 8 49 96 45 51 84 86 13 93 53 59 85 66 65 77 53 4 21 11 13 54 26 67 22 1 26 48 70 1 36 
